File : Instances/p66
Use 144 s

32843

0 0 0 1 0 0 1 1 0 0 0 0 0 0 0 0 0 0 0 0 0 1 0 1 1 0 1 0 1 0 
7 6 21 24 21 6 21 28 24 28 26 28 3 3 28 7 3 23 24 24 7 21 23 24 23 7 24 28 26 21 6 6 26 21 28 6 26 3 24 21 7 26 6 26 3 26 3 21 6 26 24 24 21 21 3 6 7 26 7 7 26 24 7 26 3 7 23 28 28 7 7 6 6 26 23 23 3 23 3 24 23 23 26 7 26 3 6 23 24 7 28 6 7 7 21 3 28 6 23 28 28 21 7 7 26 24 26 24 24 3 26 26 24 6 6 3 28 7 28 3 26 7 28 6 26 21 21 28 26 28 28 24 7 23 23 26 3 3 28 23 6 24 28 7 7 23 24 21 24 7 24 28 23 28 3 28 21 21 3 3 3 24 23 21 23 24 23 26 3 21 23 3 28 28 26 21 24 23 26 23 23 21 21 6 6 26 28 23 24 21 21 21 6 6 7 6 7 21 23 6 
